Problem:    
Rows:       260
Columns:    89 (72 integer, 72 binary)
Non-zeros:  812
Status:     INTEGER OPTIMAL
Objective:  value = 5.894878 (MINimum)

   No.   Row name        Activity     Lower bound   Upper bound
------ ------------    ------------- ------------- -------------
     1 r.5                   1005.89             0               
     2 r.6                  -997.639      -998.462               
     3 r.7                   5.89488             0               
     4 r.8                    2.7663      -991.785               
     5 r.9                   1005.89             0               
     6 r.10                 -996.143      -998.504               
     7 r.11                  5.89488             0               
     8 r.12                 -991.149      -991.202               
     9 r.13                  1005.89             0               
    10 r.14                 -999.835      -999.888               
    11 r.15                  5.89488             0               
    12 r.16                   2.7663      -998.523               
    13 r.17                  5.89488             0               
    14 r.18                 -999.786      -999.839               
    15 r.19                  1005.89             0               
    16 r.20                 -997.234       -997.57               
    17 r.21                  1005.89             0               
    18 r.22                 -999.176      -999.342               
    19 r.23                  5.89488             0               
    20 r.24                   2.7663      -996.153               
    21 r.25                  1005.89             0               
    22 r.26                 -999.947      -999.947               
    23 r.27                  5.89488             0               
    24 r.28                 0.052889      -999.018               
    25 r.29                  1005.89             0               
    26 r.30                 -994.105      -997.962               
    27 r.31                  5.89488             0               
    28 r.32                  5.89488      -996.225               
    29 r.33                  5.89488             0               
    30 r.34                  5.89488       -997.81               
    31 r.35                  1005.89             0               
    32 r.36                 -994.105      -996.871               
    33 r.37                        1             1             = 
    34 r.38                        1             1             = 
    35 r.39                        1             1             = 
    36 r.40                        1             1             = 
    37 r.41                        1             1             = 
    38 r.42                        1             1             = 
    39 r.43                        1             1             = 
    40 r.44                        1             1             = 
    41 r.45                        2             2               
    42 r.46                       -2         -1001               
    43 r.47                 -998.504      -998.504               
    44 r.48                     1000             2               
    45 r.49                    -1000         -1001               
    46 r.50                  1006.08      -991.202               
    47 r.51                        2             2               
    48 r.52                       -2         -1001               
    49 r.53                 -2.19617      -999.888               
    50 r.54                     1000             2               
    51 r.55                    -1000         -1001               
    52 r.56                     2000      -998.523               
    53 r.57                     1001             2               
    54 r.58                    -1001         -1001               
    55 r.59                  997.852      -999.839               
    56 r.60                     1001             2               
    57 r.61                    -1001         -1001               
    58 r.62                     2000       -997.57               
    59 r.63                        2             2               
    60 r.64                       -2         -1001               
    61 r.65                 -1.53769      -999.342               
    62 r.66                     1000             2               
    63 r.67                    -1000         -1001               
    64 r.68                     2000      -996.153               
    65 r.69                 -997.692      -998.462               
    66 r.70                  2.71341      -991.785               
    67 r.71                 -997.692      -998.462               
    68 r.72                  2.71341      -991.785               
    69 r.73                 -996.466      -997.962               
    70 r.74                  3.53362      -996.225               
    71 r.75                 -996.871      -997.962               
    72 r.76                  3.12857      -996.225               
    73 r.77                  3.53362       -997.81               
    74 r.78                 -996.466      -996.871               
    75 r.79                  3.12857       -997.81               
    76 r.80                 -996.871      -996.871               
    77 r.81                        2             2               
    78 r.82                       -2         -1001               
    79 r.83                  998.504       1.53769               
    80 r.84                     1000             2               
    81 r.85                    -1000         -1001               
    82 r.86                  2993.92       8.21545               
    83 r.87                        2             2               
    84 r.88                       -2         -1001               
    85 r.89                   -3.692      -999.888               
    86 r.90                     1000             2               
    87 r.91                    -1000         -1001               
    88 r.92                  2993.92      -998.523               
    89 r.93                     1001             2               
    90 r.94                    -1001         -1001               
    91 r.95                  996.357      -999.839               
    92 r.96                     1001             2               
    93 r.97                    -1001         -1001               
    94 r.98                  2993.92       -997.57               
    95 r.99                        2             2               
    96 r.100                      -2         -1001               
    97 r.101                -3.03352      -999.342               
    98 r.102                    1000             2               
    99 r.103                   -1000         -1001               
   100 r.104                 2993.92      -996.153               
   101 r.105                -996.196      -998.504               
   102 r.106                -991.202      -991.202               
   103 r.107                -996.196      -998.504               
   104 r.108                -991.202      -991.202               
   105 r.109                -997.962      -997.962               
   106 r.110                 2.03779      -996.225               
   107 r.111                -2.95618      -997.962               
   108 r.112                 997.044      -996.225               
   109 r.113                    1001             2               
   110 r.114                   -1001         -1001               
   111 r.115                 2002.04       -997.81               
   112 r.116                    1001             2               
   113 r.117                   -1001         -1001               
   114 r.118                 2997.04      -996.871               
   115 r.119                       2             2               
   116 r.120                      -2         -1001               
   117 r.121                 2.19617       1.53769               
   118 r.122                    1000             2               
   119 r.123                   -1000         -1001               
   120 r.124                    2000       8.21545               
   121 r.125                       2             2               
   122 r.126                      -2         -1001               
   123 r.127                   3.692       1.49583               
   124 r.128                    1000             2               
   125 r.129                   -1000         -1001               
   126 r.130                 1006.08       8.79817               
   127 r.131                    1001             2               
   128 r.132                   -1001         -1001               
   129 r.133                 1000.05      -999.839               
   130 r.134                    1001             2               
   131 r.135                   -1001         -1001               
   132 r.136                    2000       -997.57               
   133 r.137                       2             2               
   134 r.138                      -2         -1001               
   135 r.139                -999.342      -999.342               
   136 r.140                    1000             2               
   137 r.141                   -1000         -1001               
   138 r.142                    2000      -996.153               
   139 r.143                -999.888      -999.888               
   140 r.144                 2.71341      -998.523               
   141 r.145                -999.888      -999.888               
   142 r.146                 2.71341      -998.523               
   143 r.147                 -994.27      -997.962               
   144 r.148                 5.72979      -996.225               
   145 r.149                -996.871      -997.962               
   146 r.150                 3.12857      -996.225               
   147 r.151                 5.72979       -997.81               
   148 r.152                 -994.27      -996.871               
   149 r.153                 3.12857       -997.81               
   150 r.154                -996.871      -996.871               
   151 r.155                    1001             2               
   152 r.156                   -1001         -1001               
   153 r.157                 3002.15       1.53769               
   154 r.158                    1001             2               
   155 r.159                   -1001         -1001               
   156 r.160                    2000       8.21545               
   157 r.161                    1001             2               
   158 r.162                   -1001         -1001               
   159 r.163                 3003.64       1.49583               
   160 r.164                    1001             2               
   161 r.165                   -1001         -1001               
   162 r.166                 1006.08       8.79817               
   163 r.167                    1001             2               
   164 r.168                   -1001         -1001               
   165 r.169                 2999.95        0.1122               
   166 r.170                    1001             2               
   167 r.171                   -1001         -1001               
   168 r.172                    2000       1.47745               
   169 r.173                    1001             2               
   170 r.174                   -1001         -1001               
   171 r.175                 3000.61      -999.342               
   172 r.176                    1001             2               
   173 r.177                   -1001         -1001               
   174 r.178                    2000      -996.153               
   175 r.179                -999.839      -999.839               
   176 r.180                -997.287       -997.57               
   177 r.181                -999.839      -999.839               
   178 r.182                -997.287       -997.57               
   179 r.183                 5.68119      -997.962               
   180 r.184                 1005.68      -996.225               
   181 r.185                -996.871      -997.962               
   182 r.186                 3.12857      -996.225               
   183 r.187                    1000             2               
   184 r.188                   -1000         -1001               
   185 r.189                 3005.68       -997.81               
   186 r.190                       2             2               
   187 r.191                      -2         -1001               
   188 r.192                -996.871      -996.871               
   189 r.193                       2             2               
   190 r.194                      -2         -1001               
   191 r.195                 1.53769       1.53769               
   192 r.196                    1000             2               
   193 r.197                   -1000         -1001               
   194 r.198                    2000       8.21545               
   195 r.199                       2             2               
   196 r.200                      -2         -1001               
   197 r.201                 3.03352       1.49583               
   198 r.202                    1000             2               
   199 r.203                   -1000         -1001               
   200 r.204                 1006.08       8.79817               
   201 r.205                       2             2               
   202 r.206                      -2         -1001               
   203 r.207                 999.342        0.1122               
   204 r.208                    1000             2               
   205 r.209                   -1000         -1001               
   206 r.210                    2000       1.47745               
   207 r.211                    1001             2               
   208 r.212                   -1001         -1001               
   209 r.213                  999.39        0.1608               
   210 r.214                    1001             2               
   211 r.215                   -1001         -1001               
   212 r.216                    2000       2.43014               
   213 r.217                -999.229      -999.342               
   214 r.218                 2.71341      -996.153               
   215 r.219                -999.229      -999.342               
   216 r.220                 2.71341      -996.153               
   217 r.221                       2             2               
   218 r.222                      -2         -1001               
   219 r.223                -994.929      -997.962               
   220 r.224                    1000             2               
   221 r.225                   -1000         -1001               
   222 r.226                 2003.13      -996.225               
   223 r.227                 5.07131       -997.81               
   224 r.228                -994.929      -996.871               
   225 r.229                 3.12857       -997.81               
   226 r.230                -996.871      -996.871               
   227 r.231                -994.158      -997.962               
   228 r.232                 5.84199      -996.225               
   229 r.233                -994.158      -997.962               
   230 r.234                 5.84199      -996.225               
   231 r.235                       2             2               
   232 r.236                      -2         -1001               
   233 r.237                 994.929      0.658478               
   234 r.238                    1000             2               
   235 r.239                   -1000         -1001               
   236 r.240                 1996.87       3.84698               
   237 r.241                    1001             2               
   238 r.242                   -1001         -1001               
   239 r.243                    2000       -997.81               
   240 r.244                    1001             2               
   241 r.245                   -1001         -1001               
   242 r.246                    2000      -996.871               
   243 r.247                    1001             2               
   244 r.248                   -1001         -1001               
   245 r.249                 1997.96       1.49583               
   246 r.250                    1001             2               
   247 r.251                   -1001         -1001               
   248 r.252                 1002.96       8.79817               
   249 r.253                    1000             2               
   250 r.254                   -1000         -1001               
   251 r.255                 994.319        0.1608               
   252 r.256                       2             2               
   253 r.257                      -2         -1001               
   254 r.258                 996.871       2.43014               
   255 r.259                    1001             2               
   256 r.260                   -1001         -1001               
   257 r.261                    2000       2.03779               
   258 r.262                    1001             2               
   259 r.263                   -1001         -1001               
   260 r.264                    2000       3.77475               

   No. Column name       Activity     Lower bound   Upper bound
------ ------------    ------------- ------------- -------------
     1 tt                    5.89488             0               
     2 s_1_1        *              1             0             1 
     3 t_1_1                 3.53362             0               
     4 s_2_1        *              0             0             1 
     5 t_2_1                 3.12857             0               
     6 s_1_2        *              1             0             1 
     7 t_1_2                 2.03779             0               
     8 s_2_2        *              0             0             1 
     9 t_2_2                 997.044             0               
    10 s_1_3        *              1             0             1 
    11 t_1_3                 5.72979             0               
    12 s_2_3        *              0             0             1 
    13 t_2_3                 3.12857             0               
    14 s_1_4        *              0             0             1 
    15 t_1_4                 1005.68             0               
    16 s_2_4        *              1             0             1 
    17 t_2_4                 3.12857             0               
    18 s_1_5        *              1             0             1 
    19 t_1_5                 5.07131             0               
    20 s_2_5        *              0             0             1 
    21 t_2_5                 3.12857             0               
    22 s_1_6        *              1             0             1 
    23 t_1_6                 5.84199             0               
    24 s_2_6        *              0             0             1 
    25 t_2_6                 5.84199             0               
    26 s_1_7        *              1             0             1 
    27 t_1_7                       0             0               
    28 s_2_7        *              0             0             1 
    29 t_2_7                       0             0               
    30 s_1_8        *              0             0             1 
    31 t_1_8                       0             0               
    32 s_2_8        *              1             0             1 
    33 t_2_8                       0             0               
    34 r_1_1_2      *              0             0             1 
    35 u_1_1_2      *              1             0             1 
    36 r_2_1_2      *              1             0             1 
    37 u_2_1_2      *              0             0             1 
    38 r_1_1_3      *              0             0             1 
    39 u_1_1_3      *              0             0             1 
    40 r_2_1_3      *              1             0             1 
    41 u_2_1_3      *              0             0             1 
    42 r_1_1_4      *              1             0             1 
    43 u_1_1_4      *              0             0             1 
    44 r_2_1_4      *              1             0             1 
    45 u_2_1_4      *              0             0             1 
    46 r_1_1_5      *              0             0             1 
    47 u_1_1_5      *              0             0             1 
    48 r_2_1_5      *              1             0             1 
    49 u_2_1_5      *              0             0             1 
    50 r_1_2_3      *              0             0             1 
    51 u_1_2_3      *              0             0             1 
    52 r_2_2_3      *              1             0             1 
    53 u_2_2_3      *              0             0             1 
    54 r_1_2_4      *              1             0             1 
    55 u_1_2_4      *              0             0             1 
    56 r_2_2_4      *              1             0             1 
    57 u_2_2_4      *              0             0             1 
    58 r_1_2_5      *              0             0             1 
    59 u_1_2_5      *              0             0             1 
    60 r_2_2_5      *              1             0             1 
    61 u_2_2_5      *              0             0             1 
    62 r_1_2_8      *              1             0             1 
    63 u_1_2_8      *              0             0             1 
    64 r_2_2_8      *              1             0             1 
    65 u_2_2_8      *              0             0             1 
    66 r_1_3_4      *              1             0             1 
    67 u_1_3_4      *              0             0             1 
    68 r_2_3_4      *              1             0             1 
    69 u_2_3_4      *              0             0             1 
    70 r_1_3_5      *              0             0             1 
    71 u_1_3_5      *              1             0             1 
    72 r_2_3_5      *              1             0             1 
    73 u_2_3_5      *              0             0             1 
    74 r_1_4_5      *              1             0             1 
    75 u_1_4_5      *              0             0             1 
    76 r_2_4_5      *              1             0             1 
    77 u_2_4_5      *              0             0             1 
    78 r_1_4_8      *              1             0             1 
    79 u_1_4_8      *              0             0             1 
    80 r_2_4_8      *              0             0             1 
    81 u_2_4_8      *              1             0             1 
    82 r_1_5_7      *              0             0             1 
    83 u_1_5_7      *              1             0             1 
    84 r_2_5_7      *              1             0             1 
    85 u_2_5_7      *              0             0             1 
    86 r_1_7_8      *              1             0             1 
    87 u_1_7_8      *              0             0             1 
    88 r_2_7_8      *              1             0             1 
    89 u_2_7_8      *              0             0             1 

Integer feasibility conditions:

KKT.PE: max.abs.err = 0.00e+00 on row 0
        max.rel.err = 0.00e+00 on row 0
        High quality

KKT.PB: max.abs.err = 0.00e+00 on row 0
        max.rel.err = 0.00e+00 on row 0
        High quality

End of output
